14 42
1 2 1
1 3 1
1 4 0
1 5 0
1 6 0
1 7 0
1 8 0
1 9 0
1 10 1
1 11 0
1 12 0
1 13 0
1 14 1
2 3 1
2 4 1
2 5 0
2 6 1
2 7 0
2 8 0
2 9 0
2 10 1
2 11 0
2 12 1
2 13 0
2 14 1
3 4 1
3 5 1
3 6 0
3 7 1
3 8 1
3 9 1
3 10 0
3 11 1
3 12 0
3 13 0
3 14 0
4 5 0
4 6 1
4 7 0
4 8 0
4 9 1
4 10 1
4 11 1
4 12 1
4 13 1
4 14 1
5 6 0
5 7 1
5 8 0
5 9 1
5 10 1
5 11 0
5 12 0
5 13 1
5 14 0
6 7 0
6 8 1
6 9 1
6 10 0
6 11 0
6 12 0
6 13 0
6 14 0
7 8 0
7 9 0
7 10 0
7 11 0
7 12 0
7 13 1
7 14 0
8 9 1
8 10 1
8 11 1
8 12 1
8 13 0
8 14 0
9 10 1
9 11 0
9 12 0
9 13 0
9 14 1
10 11 1
10 12 0
10 13 1
10 14 0
11 12 1
11 13 1
11 14 0
12 13 1
12 14 1
13 14 0
